NAME 
ROWS
 N  OBJ
 L  R0      
 L  R1      
 E  R2      
 E  R3      
 E  R4      
 E  R5      
 E  R6      
 E  R7      
 E  R8      
 E  R9      
 E  R10     
 E  R11     
 E  R12     
 E  R13     
 E  R14     
 E  R15     
 E  R16     
 E  R17     
 E  R18     
 E  R19     
 E  R20     
 E  R21     
 E  R22     
 E  R23     
 E  R24     
 E  R25     
 E  R26     
COLUMNS
    MARKER    'MARKER'                 'INTORG'
    I0(16)    OBJ       112
    I0(16)    R0        -158
    I0(16)    R1        -128
    I0(16)    R3        3
    I0(16)    R4        16
    I0(16)    R5        12
    I0(16)    R6        17
    I0(16)    R8        13
    I0(16)    R9        6
    I0(16)    R10       14
    I0(16)    R11       -1
    I0(16)    R12       -1
    I0(16)    R13       16
    I0(16)    R14       14
    I0(16)    R15       13
    I0(16)    R16       4
    I0(16)    R26       1
    I1(14)    OBJ       92
    I1(14)    R0        139
    I1(14)    R1        -40
    I1(14)    R2        1
    I1(14)    R3        10
    I1(14)    R5        6
    I1(14)    R8        5
    I1(14)    R9        5
    I1(14)    R10       14
    I1(14)    R11       16
    I1(14)    R12       7
    I1(14)    R13       5
    I1(14)    R14       7
    I1(14)    R16       8
    I1(14)    R26       1
    I2(17)    OBJ       -117
    I2(17)    R0        108
    I2(17)    R1        -20
    I2(17)    R2        14
    I2(17)    R3        15
    I2(17)    R4        17
    I2(17)    R5        2
    I2(17)    R6        15
    I2(17)    R7        9
    I2(17)    R9        3
    I2(17)    R10       18
    I2(17)    R11       4
    I2(17)    R12       19
    I2(17)    R13       13
    I2(17)    R14       17
    I2(17)    R15       3
    I2(17)    R16       1
    I2(17)    R26       1
    I3(17)    OBJ       -135
    I3(17)    R0        42
    I3(17)    R1        174
    I3(17)    R2        1
    I3(17)    R3        12
    I3(17)    R4        5
    I3(17)    R5        5
    I3(17)    R6        5
    I3(17)    R7        13
    I3(17)    R8        1
    I3(17)    R9        6
    I3(17)    R10       11
    I3(17)    R11       8
    I3(17)    R12       5
    I3(17)    R13       14
    I3(17)    R14       14
    I3(17)    R15       6
    I3(17)    R26       1
    I4(14)    OBJ       79
    I4(14)    R0        -60
    I4(14)    R1        62
    I4(14)    R2        15
    I4(14)    R3        16
    I4(14)    R4        2
    I4(14)    R5        17
    I4(14)    R7        13
    I4(14)    R8        7
    I4(14)    R9        4
    I4(14)    R10       1
    I4(14)    R11       13
    I4(14)    R14       9
    I4(14)    R15       11
    I4(14)    R26       1
    I5(15)    OBJ       51
    I5(15)    R0        -106
    I5(15)    R1        -54
    I5(15)    R2        1
    I5(15)    R3        8
    I5(15)    R4        11
    I5(15)    R5        -1
    I5(15)    R6        -1
    I5(15)    R7        3
    I5(15)    R9        19
    I5(15)    R10       14
    I5(15)    R11       6
    I5(15)    R13       -1
    I5(15)    R14       19
    I5(15)    R16       12
    I5(15)    R26       1
    I6(16)    OBJ       -171
    I6(16)    R0        125
    I6(16)    R1        -28
    I6(16)    R4        1
    I6(16)    R5        1
    I6(16)    R6        11
    I6(16)    R7        4
    I6(16)    R8        2
    I6(16)    R9        3
    I6(16)    R10       8
    I6(16)    R11       17
    I6(16)    R12       7
    I6(16)    R13       18
    I6(16)    R14       12
    I6(16)    R15       -1
    I6(16)    R16       14
    I6(16)    R26       1
    I7(13)    OBJ       37
    I7(13)    R0        17
    I7(13)    R1        -108
    I7(13)    R3        16
    I7(13)    R4        -1
    I7(13)    R5        7
    I7(13)    R6        7
    I7(13)    R7        13
    I7(13)    R9        9
    I7(13)    R10       8
    I7(13)    R12       18
    I7(13)    R13       14
    I7(13)    R14       19
    I7(13)    R26       1
    I8(16)    OBJ       58
    I8(16)    R0        63
    I8(16)    R1        -19
    I8(16)    R2        1
    I8(16)    R3        11
    I8(16)    R4        2
    I8(16)    R6        7
    I8(16)    R7        15
    I8(16)    R8        3
    I8(16)    R9        15
    I8(16)    R10       5
    I8(16)    R11       18
    I8(16)    R12       15
    I8(16)    R14       4
    I8(16)    R15       17
    I8(16)    R16       5
    I8(16)    R26       1
    I9(12)    OBJ       -179
    I9(12)    R0        165
    I9(12)    R1        -200
    I9(12)    R3        13
    I9(12)    R4        7
    I9(12)    R5        7
    I9(12)    R6        2
    I9(12)    R8        17
    I9(12)    R9        13
    I9(12)    R11       7
    I9(12)    R14       2
    I9(12)    R16       9
    I9(12)    R26       1
    I10(15)   OBJ       199
    I10(15)   R0        164
    I10(15)   R1        -172
    I10(15)   R2        8
    I10(15)   R3        13
    I10(15)   R4        1
    I10(15)   R7        12
    I10(15)   R9        7
    I10(15)   R10       -1
    I10(15)   R11       1
    I10(15)   R12       19
    I10(15)   R13       3
    I10(15)   R14       17
    I10(15)   R15       15
    I10(15)   R16       13
    I10(15)   R26       1
    I11(13)   OBJ       123
    I11(13)   R0        -5
    I11(13)   R1        131
    I11(13)   R2        14
    I11(13)   R3        17
    I11(13)   R5        3
    I11(13)   R7        5
    I11(13)   R9        6
    I11(13)   R11       17
    I11(13)   R13       19
    I11(13)   R14       10
    I11(13)   R15       3
    I11(13)   R16       15
    I11(13)   R26       1
    I12(15)   OBJ       38
    I12(15)   R0        -172
    I12(15)   R1        -194
    I12(15)   R2        16
    I12(15)   R3        6
    I12(15)   R4        9
    I12(15)   R5        4
    I12(15)   R6        4
    I12(15)   R7        18
    I12(15)   R8        7
    I12(15)   R10       19
    I12(15)   R12       18
    I12(15)   R13       1
    I12(15)   R14       16
    I12(15)   R16       2
    I12(15)   R26       1
    I13(15)   OBJ       111
    I13(15)   R0        2
    I13(15)   R1        -148
    I13(15)   R2        2
    I13(15)   R3        16
    I13(15)   R4        10
    I13(15)   R6        9
    I13(15)   R7        8
    I13(15)   R8        19
    I13(15)   R9        18
    I13(15)   R10       12
    I13(15)   R11       15
    I13(15)   R12       10
    I13(15)   R14       19
    I13(15)   R15       16
    I13(15)   R26       1
    I14(16)   OBJ       181
    I14(16)   R0        125
    I14(16)   R1        -148
    I14(16)   R2        17
    I14(16)   R3        15
    I14(16)   R4        15
    I14(16)   R5        12
    I14(16)   R8        17
    I14(16)   R9        18
    I14(16)   R10       11
    I14(16)   R11       3
    I14(16)   R12       18
    I14(16)   R13       19
    I14(16)   R14       16
    I14(16)   R15       14
    I14(16)   R16       3
    I14(16)   R26       1
    MARKER    'MARKER'                 'INTEND'
    C15(19)   OBJ       -3
    C15(19)   R0        6
    C15(19)   R1        -3
    C15(19)   R2        12
    C15(19)   R5        12
    C15(19)   R6        12
    C15(19)   R7        16
    C15(19)   R8        14
    C15(19)   R9        4
    C15(19)   R10       15
    C15(19)   R12       7
    C15(19)   R13       12
    C15(19)   R14       12
    C15(19)   R16       18
    C15(19)   R17       14
    C15(19)   R18       13
    C15(19)   R20       2
    C15(19)   R21       10
    C15(19)   R22       4
    C15(19)   R25       3
    C16(21)   OBJ       -9
    C16(21)   R0        -1
    C16(21)   R1        5
    C16(21)   R2        17
    C16(21)   R3        5
    C16(21)   R4        11
    C16(21)   R5        6
    C16(21)   R6        10
    C16(21)   R7        -1
    C16(21)   R8        5
    C16(21)   R9        7
    C16(21)   R10       8
    C16(21)   R11       6
    C16(21)   R13       16
    C16(21)   R15       12
    C16(21)   R17       16
    C16(21)   R18       12
    C16(21)   R20       17
    C16(21)   R21       19
    C16(21)   R22       16
    C16(21)   R24       11
    C16(21)   R25       1
    C17(21)   OBJ       -4
    C17(21)   R0        -9
    C17(21)   R1        -8
    C17(21)   R2        4
    C17(21)   R4        18
    C17(21)   R6        19
    C17(21)   R7        7
    C17(21)   R8        3
    C17(21)   R9        12
    C17(21)   R10       11
    C17(21)   R11       17
    C17(21)   R12       15
    C17(21)   R14       5
    C17(21)   R15       10
    C17(21)   R16       11
    C17(21)   R17       16
    C17(21)   R19       -1
    C17(21)   R21       8
    C17(21)   R22       2
    C17(21)   R23       8
    C17(21)   R24       12
    C17(21)   R25       18
    C18(22)   OBJ       -4
    C18(22)   R0        -6
    C18(22)   R1        -3
    C18(22)   R2        2
    C18(22)   R3        1
    C18(22)   R4        8
    C18(22)   R5        -1
    C18(22)   R7        15
    C18(22)   R8        2
    C18(22)   R9        19
    C18(22)   R10       18
    C18(22)   R11       2
    C18(22)   R12       10
    C18(22)   R13       14
    C18(22)   R15       11
    C18(22)   R16       16
    C18(22)   R17       17
    C18(22)   R19       10
    C18(22)   R20       7
    C18(22)   R21       7
    C18(22)   R22       14
    C18(22)   R23       17
    C18(22)   R24       5
    C19(17)   OBJ       -1
    C19(17)   R0        7
    C19(17)   R1        5
    C19(17)   R2        6
    C19(17)   R3        8
    C19(17)   R5        15
    C19(17)   R6        5
    C19(17)   R7        10
    C19(17)   R9        19
    C19(17)   R10       15
    C19(17)   R12       17
    C19(17)   R14       3
    C19(17)   R15       16
    C19(17)   R17       8
    C19(17)   R19       2
    C19(17)   R21       8
    C19(17)   R23       2
    C19(17)   R25       10
    C20(23)   OBJ       -5
    C20(23)   R0        -9
    C20(23)   R1        -9
    C20(23)   R2        17
    C20(23)   R3        15
    C20(23)   R4        18
    C20(23)   R5        13
    C20(23)   R6        1
    C20(23)   R7        -1
    C20(23)   R8        8
    C20(23)   R9        7
    C20(23)   R11       18
    C20(23)   R12       7
    C20(23)   R14       19
    C20(23)   R15       3
    C20(23)   R16       16
    C20(23)   R17       3
    C20(23)   R18       11
    C20(23)   R19       14
    C20(23)   R20       10
    C20(23)   R21       15
    C20(23)   R22       8
    C20(23)   R23       7
    C20(23)   R24       19
    C21(16)   R0        -4
    C21(16)   R1        3
    C21(16)   R2        11
    C21(16)   R3        3
    C21(16)   R5        16
    C21(16)   R7        19
    C21(16)   R8        17
    C21(16)   R9        4
    C21(16)   R10       3
    C21(16)   R11       17
    C21(16)   R12       9
    C21(16)   R13       5
    C21(16)   R18       17
    C21(16)   R19       5
    C21(16)   R20       12
    C21(16)   R22       13
    C22(20)   OBJ       -8
    C22(20)   R0        9
    C22(20)   R1        6
    C22(20)   R3        9
    C22(20)   R5        1
    C22(20)   R6        8
    C22(20)   R7        15
    C22(20)   R8        10
    C22(20)   R10       14
    C22(20)   R11       4
    C22(20)   R12       3
    C22(20)   R14       19
    C22(20)   R16       4
    C22(20)   R17       15
    C22(20)   R18       2
    C22(20)   R19       13
    C22(20)   R21       10
    C22(20)   R22       -1
    C22(20)   R23       1
    C22(20)   R24       1
    C22(20)   R25       7
    C23(17)   OBJ       -10
    C23(17)   R1        2
    C23(17)   R5        5
    C23(17)   R9        14
    C23(17)   R10       -1
    C23(17)   R11       14
    C23(17)   R12       14
    C23(17)   R13       4
    C23(17)   R14       8
    C23(17)   R15       6
    C23(17)   R16       1
    C23(17)   R17       12
    C23(17)   R18       -1
    C23(17)   R19       16
    C23(17)   R20       7
    C23(17)   R22       12
    C23(17)   R23       8
    C23(17)   R25       15
    C24(23)   OBJ       6
    C24(23)   R1        -3
    C24(23)   R2        6
    C24(23)   R4        11
    C24(23)   R5        12
    C24(23)   R6        4
    C24(23)   R7        5
    C24(23)   R8        1
    C24(23)   R9        11
    C24(23)   R10       16
    C24(23)   R11       18
    C24(23)   R12       7
    C24(23)   R13       19
    C24(23)   R14       12
    C24(23)   R15       -1
    C24(23)   R16       15
    C24(23)   R17       3
    C24(23)   R19       16
    C24(23)   R20       8
    C24(23)   R21       4
    C24(23)   R22       12
    C24(23)   R23       10
    C24(23)   R24       11
    C24(23)   R25       6
    C25(1)    R2        1
    C26(1)    R3        1
    C27(1)    R4        1
    C28(1)    R5        1
    C29(1)    R6        1
    C30(1)    R7        1
    C31(1)    R8        1
    C32(1)    R9        1
    C33(1)    R10       1
    C34(1)    R11       1
    C35(1)    R12       1
    C36(1)    R13       1
    C37(1)    R14       1
    C38(1)    R15       1
    C39(1)    R16       1
    C40(1)    R17       1
    C41(1)    R18       1
    C42(1)    R19       1
    C43(1)    R20       1
    C44(1)    R21       1
    C45(1)    R22       1
    C46(1)    R23       1
    C47(1)    R24       1
    C48(1)    R25       1
    C49(1)    R26       1
RHS
    RHS1      R0        4.5551838024124055e+02
    RHS1      R1        -6.2200028719126777e+01
    RHS1      R2        75
    RHS1      R3        55
    RHS1      R4        82
    RHS1      R5        95
    RHS1      R6        98
    RHS1      R7        62
    RHS1      R8        55
    RHS1      R9        81
    RHS1      R10       79
    RHS1      R11       63
    RHS1      R12       89
    RHS1      R13       64
    RHS1      R14       89
    RHS1      R15       75
    RHS1      R16       90
    RHS1      R17       79
    RHS1      R18       61
    RHS1      R19       65
    RHS1      R20       63
    RHS1      R21       60
    RHS1      R22       82
    RHS1      R23       60
    RHS1      R24       74
    RHS1      R25       74
    RHS1      R26       5
BOUNDS
 UP BND1      I0(16)    1
 UP BND1      I1(14)    1
 UP BND1      I2(17)    1
 UP BND1      I3(17)    1
 UP BND1      I4(14)    1
 UP BND1      I5(15)    1
 UP BND1      I6(16)    1
 UP BND1      I7(13)    1
 UP BND1      I8(16)    1
 UP BND1      I9(12)    1
 UP BND1      I10(15)   1
 UP BND1      I11(13)   1
 UP BND1      I12(15)   1
 UP BND1      I13(15)   1
 UP BND1      I14(16)   1
ENDATA
